g3 0 1 0	# problem graphpart_3g-0234-0234
 72 24 1 0 24	# vars, constraints, objectives, ranges, eqns
 0 1	# nonlinear constraints, objectives
 0 0	# network constraints: nonlinear, linear
 0 72 0	# nonlinear vars in constraints, objectives, both
 0 0 0 1	# linear network variables; functions; arith, flags
 0 0 0 0 72	# discrete variables: binary, integer, nonlinear (b,c,o)
 72 72	# nonzeros in Jacobian, gradients
 3 3	# max name lengths: constraints, variables
 0 0 0 0 0	# common exprs: b,c,o,c1,o1
b
0 0 1
0 0 1
0 0 1
0 0 1
0 0 1
0 0 1
0 0 1
0 0 1
0 0 1
0 0 1
0 0 1
0 0 1
0 0 1
0 0 1
0 0 1
0 0 1
0 0 1
0 0 1
0 0 1
0 0 1
0 0 1
0 0 1
0 0 1
0 0 1
0 0 1
0 0 1
0 0 1
0 0 1
0 0 1
0 0 1
0 0 1
0 0 1
0 0 1
0 0 1
0 0 1
0 0 1
0 0 1
0 0 1
0 0 1
0 0 1
0 0 1
0 0 1
0 0 1
0 0 1
0 0 1
0 0 1
0 0 1
0 0 1
0 0 1
0 0 1
0 0 1
0 0 1
0 0 1
0 0 1
0 0 1
0 0 1
0 0 1
0 0 1
0 0 1
0 0 1
0 0 1
0 0 1
0 0 1
0 0 1
0 0 1
0 0 1
0 0 1
0 0 1
0 0 1
0 0 1
0 0 1
0 0 1
r
4 1
4 1
4 1
4 1
4 1
4 1
4 1
4 1
4 1
4 1
4 1
4 1
4 1
4 1
4 1
4 1
4 1
4 1
4 1
4 1
4 1
4 1
4 1
4 1
C0
n0
C1
n0
C2
n0
C3
n0
C4
n0
C5
n0
C6
n0
C7
n0
C8
n0
C9
n0
C10
n0
C11
n0
C12
n0
C13
n0
C14
n0
C15
n0
C16
n0
C17
n0
C18
n0
C19
n0
C20
n0
C21
n0
C22
n0
C23
n0
O0 0
o54
180
o2
o2
n36391
v0
v3
o16
o2
o2
n56023
v0
v6
o16
o2
o2
n30587
v0
v9
o2
o2
n4.394e4
v0
v18
o2
o2
n103654
v0
v54
o2
o2
n36391
v1
v4
o16
o2
o2
n56023
v1
v7
o16
o2
o2
n30587
v1
v10
o2
o2
n4.394e4
v1
v19
o2
o2
n103654
v1
v55
o2
o2
n36391
v2
v5
o16
o2
o2
n56023
v2
v8
o16
o2
o2
n30587
v2
v11
o2
o2
n4.394e4
v2
v20
o2
o2
n103654
v2
v56
o16
o2
o2
n42004
v3
v6
o16
o2
o2
n64233
v3
v12
o2
o2
n75921
v3
v21
o2
o2
n137016
v3
v57
o16
o2
o2
n42004
v4
v7
o16
o2
o2
n64233
v4
v13
o2
o2
n75921
v4
v22
o2
o2
n137016
v4
v58
o16
o2
o2
n42004
v5
v8
o16
o2
o2
n64233
v5
v14
o2
o2
n75921
v5
v23
o2
o2
n137016
v5
v59
o2
o2
n140585
v6
v15
o2
o2
n145261
v6
v24
o2
o2
n13442
v6
v60
o2
o2
n140585
v7
v16
o2
o2
n145261
v7
v25
o2
o2
n13442
v7
v61
o2
o2
n140585
v8
v17
o2
o2
n145261
v8
v26
o2
o2
n13442
v8
v62
o16
o2
o2
n67931
v9
v12
o2
o2
n216581
v9
v15
o2
o2
n5.245e4
v9
v27
o16
o2
o2
n1.268e4
v9
v63
o16
o2
o2
n67931
v10
v13
o2
o2
n216581
v10
v16
o2
o2
n5.245e4
v10
v28
o16
o2
o2
n1.268e4
v10
v64
o16
o2
o2
n67931
v11
v14
o2
o2
n216581
v11
v17
o2
o2
n5.245e4
v11
v29
o16
o2
o2
n1.268e4
v11
v65
o16
o2
o2
n40867
v12
v15
o2
o2
n53965
v12
v30
o2
o2
n127982
v12
v66
o16
o2
o2
n40867
v13
v16
o2
o2
n53965
v13
v31
o2
o2
n127982
v13
v67
o16
o2
o2
n40867
v14
v17
o2
o2
n53965
v14
v32
o2
o2
n127982
v14
v68
o2
o2
n8603
v15
v33
o2
o2
n161176
v15
v69
o2
o2
n8603
v16
v34
o2
o2
n161176
v16
v70
o2
o2
n8603
v17
v35
o2
o2
n161176
v17
v71
o16
o2
o2
n30437
v18
v21
o2
o2
n49122
v18
v24
o2
o2
n43433
v18
v27
o16
o2
o2
n16626
v18
v36
o16
o2
o2
n30437
v19
v22
o2
o2
n49122
v19
v25
o2
o2
n43433
v19
v28
o16
o2
o2
n16626
v19
v37
o16
o2
o2
n30437
v20
v23
o2
o2
n49122
v20
v26
o2
o2
n43433
v20
v29
o16
o2
o2
n16626
v20
v38
o16
o2
o2
n145961
v21
v24
o16
o2
o2
n15003
v21
v30
o2
o2
n129731
v21
v39
o16
o2
o2
n145961
v22
v25
o16
o2
o2
n15003
v22
v31
o2
o2
n129731
v22
v40
o16
o2
o2
n145961
v23
v26
o16
o2
o2
n15003
v23
v32
o2
o2
n129731
v23
v41
o16
o2
o2
n183464
v24
v33
o16
o2
o2
n186557
v24
v42
o16
o2
o2
n183464
v25
v34
o16
o2
o2
n186557
v25
v43
o16
o2
o2
n183464
v26
v35
o16
o2
o2
n186557
v26
v44
o2
o2
n29786
v27
v30
o16
o2
o2
n313633
v27
v33
o16
o2
o2
n39968
v27
v45
o2
o2
n29786
v28
v31
o16
o2
o2
n313633
v28
v34
o16
o2
o2
n39968
v28
v46
o2
o2
n29786
v29
v32
o16
o2
o2
n313633
v29
v35
o16
o2
o2
n39968
v29
v47
o2
o2
n91033
v30
v33
o16
o2
o2
n84205
v30
v48
o2
o2
n91033
v31
v34
o16
o2
o2
n84205
v31
v49
o2
o2
n91033
v32
v35
o16
o2
o2
n84205
v32
v50
o16
o2
o2
n41917
v33
v51
o16
o2
o2
n41917
v34
v52
o16
o2
o2
n41917
v35
v53
o16
o2
o2
n53775
v36
v39
o16
o2
o2
n94936
v36
v42
o2
o2
n17605
v36
v45
o2
o2
n103658
v36
v54
o16
o2
o2
n53775
v37
v40
o16
o2
o2
n94936
v37
v43
o2
o2
n17605
v37
v46
o2
o2
n103658
v37
v55
o16
o2
o2
n53775
v38
v41
o16
o2
o2
n94936
v38
v44
o2
o2
n17605
v38
v47
o2
o2
n103658
v38
v56
o2
o2
n73358
v39
v42
o2
o2
n51387
v39
v48
o16
o2
o2
n101209
v39
v57
o2
o2
n73358
v40
v43
o2
o2
n51387
v40
v49
o16
o2
o2
n101209
v40
v58
o2
o2
n73358
v41
v44
o2
o2
n51387
v41
v50
o16
o2
o2
n101209
v41
v59
o2
o2
n77521
v42
v51
o2
o2
n108709
v42
v60
o2
o2
n77521
v43
v52
o2
o2
n108709
v43
v61
o2
o2
n77521
v44
v53
o2
o2
n108709
v44
v62
o16
o2
o2
n97439
v45
v48
o16
o2
o2
n2.1798e5
v45
v51
o2
o2
n163226
v45
v63
o16
o2
o2
n97439
v46
v49
o16
o2
o2
n2.1798e5
v46
v52
o2
o2
n163226
v46
v64
o16
o2
o2
n97439
v47
v50
o16
o2
o2
n2.1798e5
v47
v53
o2
o2
n163226
v47
v65
o2
o2
n5548
v48
v51
o16
o2
o2
n93151
v48
v66
o2
o2
n5548
v49
v52
o16
o2
o2
n93151
v49
v67
o2
o2
n5548
v50
v53
o16
o2
o2
n93151
v50
v68
o2
o2
n208299
v51
v69
o2
o2
n208299
v52
v70
o2
o2
n208299
v53
v71
o2
o2
n16385
v54
v57
o2
o2
n6737
v54
v60
o16
o2
o2
n9.424e4
v54
v63
o2
o2
n16385
v55
v58
o2
o2
n6737
v55
v61
o16
o2
o2
n9.424e4
v55
v64
o2
o2
n16385
v56
v59
o2
o2
n6737
v56
v62
o16
o2
o2
n9.424e4
v56
v65
o16
o2
o2
n51575
v57
v60
o16
o2
o2
n1.5849e5
v57
v66
o16
o2
o2
n51575
v58
v61
o16
o2
o2
n1.5849e5
v58
v67
o16
o2
o2
n51575
v59
v62
o16
o2
o2
n1.5849e5
v59
v68
o16
o2
o2
n26327
v60
v69
o16
o2
o2
n26327
v61
v70
o16
o2
o2
n26327
v62
v71
o2
o2
n136319
v63
v66
o2
o2
n56292
v63
v69
o2
o2
n136319
v64
v67
o2
o2
n56292
v64
v70
o2
o2
n136319
v65
v68
o2
o2
n56292
v65
v71
o16
o2
o2
n47852
v66
v69
o16
o2
o2
n47852
v67
v70
o16
o2
o2
n47852
v68
v71
k71
1
2
3
4
5
6
7
8
9
10
11
12
13
14
15
16
17
18
19
20
21
22
23
24
25
26
27
28
29
30
31
32
33
34
35
36
37
38
39
40
41
42
43
44
45
46
47
48
49
50
51
52
53
54
55
56
57
58
59
60
61
62
63
64
65
66
67
68
69
70
71
J0 3
0 1
1 1
2 1
J1 3
3 1
4 1
5 1
J2 3
6 1
7 1
8 1
J3 3
9 1
10 1
11 1
J4 3
12 1
13 1
14 1
J5 3
15 1
16 1
17 1
J6 3
18 1
19 1
20 1
J7 3
21 1
22 1
23 1
J8 3
24 1
25 1
26 1
J9 3
27 1
28 1
29 1
J10 3
30 1
31 1
32 1
J11 3
33 1
34 1
35 1
J12 3
36 1
37 1
38 1
J13 3
39 1
40 1
41 1
J14 3
42 1
43 1
44 1
J15 3
45 1
46 1
47 1
J16 3
48 1
49 1
50 1
J17 3
51 1
52 1
53 1
J18 3
54 1
55 1
56 1
J19 3
57 1
58 1
59 1
J20 3
60 1
61 1
62 1
J21 3
63 1
64 1
65 1
J22 3
66 1
67 1
68 1
J23 3
69 1
70 1
71 1
G0 72
0 0
1 0
2 0
3 0
4 0
5 0
6 0
7 0
8 0
9 0
10 0
11 0
12 0
13 0
14 0
15 0
16 0
17 0
18 0
19 0
20 0
21 0
22 0
23 0
24 0
25 0
26 0
27 0
28 0
29 0
30 0
31 0
32 0
33 0
34 0
35 0
36 0
37 0
38 0
39 0
40 0
41 0
42 0
43 0
44 0
45 0
46 0
47 0
48 0
49 0
50 0
51 0
52 0
53 0
54 0
55 0
56 0
57 0
58 0
59 0
60 0
61 0
62 0
63 0
64 0
65 0
66 0
67 0
68 0
69 0
70 0
71 0
